p edge 28 168
e 1 2
e 1 4
e 1 10
e 1 16
e 1 19
e 1 20
e 2 3
e 2 7
e 2 11
e 2 17
e 2 18
e 2 20
e 3 12
e 3 15
e 3 17
e 3 23
e 3 25
e 3 28
e 4 1
e 4 3
e 4 10
e 4 17
e 4 20
e 4 27
e 5 6
e 5 15
e 5 16
e 5 20
e 5 27
e 5 28
e 6 1
e 6 2
e 6 11
e 6 18
e 6 24
e 6 27
e 7 2
e 7 3
e 7 6
e 7 8
e 7 24
e 7 26
e 8 7
e 8 17
e 8 18
e 8 21
e 8 23
e 8 24
e 9 8
e 9 10
e 9 18
e 9 19
e 9 19
e 9 27
e 10 5
e 10 9
e 10 14
e 10 18
e 10 20
e 10 25
e 11 6
e 11 13
e 11 18
e 11 22
e 11 26
e 11 27
e 12 3
e 12 4
e 12 11
e 12 18
e 12 19
e 12 24
e 13 1
e 13 8
e 13 15
e 13 15
e 13 24
e 13 25
e 14 5
e 14 5
e 14 8
e 14 16
e 14 23
e 14 24
e 15 1
e 15 5
e 15 8
e 15 9
e 15 13
e 15 13
e 16 7
e 16 8
e 16 12
e 16 15
e 16 19
e 16 19
e 17 6
e 17 7
e 17 11
e 17 15
e 17 16
e 17 22
e 18 1
e 18 7
e 18 9
e 18 17
e 18 21
e 18 26
e 19 13
e 19 14
e 19 14
e 19 16
e 19 21
e 19 22
e 20 4
e 20 12
e 20 18
e 20 18
e 20 18
e 20 26
e 21 2
e 21 6
e 21 12
e 21 20
e 21 20
e 21 25
e 22 6
e 22 12
e 22 13
e 22 16
e 22 23
e 22 23
e 23 1
e 23 4
e 23 4
e 23 5
e 23 12
e 23 26
e 24 4
e 24 10
e 24 11
e 24 25
e 24 25
e 24 25
e 25 5
e 25 6
e 25 7
e 25 12
e 25 19
e 25 20
e 26 1
e 26 8
e 26 9
e 26 12
e 26 14
e 26 17
e 27 5
e 27 11
e 27 11
e 27 17
e 27 21
e 27 22
e 28 2
e 28 4
e 28 4
e 28 8
e 28 8
e 28 9
